\ENCODING=ISO-8859-1
\Problem name: IloCplex

Minimize
 obj1: x1 + x2 + x3 + x4 + x5 + x6 + x7 + x8 + x9 + x10 + x11 + x12 + x13 + x14
       + x15 + x16 + x17 + x18 + x19 + x20 + x21 + x22 + x23 + x24 + x25 + x26
       + x27 + x28 + x29 + x30 + x31 + x32 + x33 + x34 + x35 + x36 + x37 + x38
       + x39 + x40 + x41 + x42 + x43 + x44 + x45 + x46 + x47 + x48 + x49 + x50
       + x51 + x52 + x53 + x54 + x55 + x56 + x57 + x58 + x59 + x60 + x61 + x62
       + x63 + x64 + x65 + x66 + x67 + x68 + x69 + x70 + x71 + x72 + x73 + x74
       + x75 + x76 + x77 + x78 + x79 + x80 + x81 + x82 + x83 + x84 + x85 + x86
       + x87 + x88 + x89 + x90 + x91 + x92 + x93 + x94 + x95 + x96 + x97 + x98
       + x99 + x100 + x101 + x102 + x103 + x104 + x105 + x106 + x107 + x108
       + x109 + x110 + x111 + x112 + x113 + x114 + x115 + x116 + x117 + x118
       + x119 + x120 + x121 + x122 + x123 + x124 + x125 + x126 + x127 + x128
       + x129 + x130 + x131 + x132 + x133 + x134 + x135 + x136 + x137 + x138
       + x139 + x140 + x141 + x142 + x143 + x144 + x145 + x146 + x147 + x148
       + x149 + x150 + x151 + x152 + x153 + x154 + x155 + x156 + x157 + x158
       + x159 + x160 + x161 + x162 + x163 + x164 + x165 + x166 + x167 + x168
       + x169 + x170 + x171 + x172 + x173 + x174 + x175 + x176 + x177 + x178
       + x179 + x180 + x181 + x182 + x183 + x184 + x185 + x186 + x187 + x188
       + x189 + x190 + x191 + x192 + x193 + x194 + x195 + x196 + x197 + x198
       + x199 + x200 + x201 + x202 + x203 + x204 + x205 + x206 + x207 + x208
       + x209 + x210
Subject To
 c1:   x1 + x2 + x3 + x4 + x5 + x6 + x7 + x8 + x9 + x10 + x11 + x12 + x13 + x14
       + x15 + x16 + x17 + x18 + x19 + x20 + x21 + x22 + x23 + x24 + x25 + x26
       + x27 + x28 + x29 + x30 + x31 + x32 + x33 + x34 + x35 + x36 + x37 + x38
       + x39 + x40 + x41 + x42 + x43 + x44 + x45 + x46 + x47 + x48 + x49 + x50
       + x51 + x52 + x53 + x54 + x55 + x56 + x57 + x58 + x59 + x60 + x61 + x62
       + x63 + x64 + x65 + x66 + x67 + x68 + x69 + x70 + x71 + x72 + x73 + x74
       + x75 + x76 + x77 + x78 + x79 + x80 + x81 + x82 + x83 + x84 + x85 + x86
       + x87 + x88 + x89 + x90 + x91 + x92 + x93 + x94 + x95 + x96 + x97 + x98
       + x99 + x100 + x101 + x102 + x103 + x104 + x105 + x106 + x107 + x108
       + x109 + x110 + x111 + x112 + x113 + x114 + x115 + x116 + x117 + x118
       + x119 + x120 + x121 + x122 + x123 + x124 + x125 + x126 + x127 + x128
       + x129 + x130 + x131 + x132 + x133 + x134 + x135 + x136 + x137 + x138
       + x139 + x140 + x141 + x142 + x143 + x144 + x145 + x146 + x147 + x148
       + x149 + x150 + x151 + x152 + x153 + x154 + x155 + x156 + x157 + x158
       + x159 + x160 + x161 + x162 + x163 + x164 + x165 + x166 + x167 + x168
       + x169 + x170 + x171 + x172 + x173 + x174 + x175 + x176 + x177 + x178
       + x179 + x180 + x181 + x182 + x183 + x184 + x185 + x186 + x187 + x188
       + x189 + x190 + x191 + x192 + x193 + x194 + x195 + x196 + x197 + x198
       + x199 + x200 + x201 + x202 + x203 + x204 + x205 + x206 + x207 + x208
       + x209 + x210 + x211 + x212 + x213 + x214 + x215 + x216 + x217 + x218
       + x219 + x220 + x221 + x222 + x223 + x224 + x225 + x226 + x227 + x228
        = 17
 c2:   x228 <= 1
 c3:   x2 + x4 + x6 + x8 + x10 + x12 + x14 + x16 + x18 + x20 + x22 + x24 + x214
       + x217 <= 1
 c4:   x1 + x26 + x28 + x30 + x32 + x34 + x36 + x38 + x40 + x42 + x44 + x46
       + x48 + x216 <= 1
 c5:   x3 + x25 + x50 + x52 + x54 + x56 + x58 + x60 + x62 + x64 + x66 + x68
       + x70 + x72 + x211 <= 1
 c6:   x49 + x74 + x76 + x78 + x80 + x82 + x84 + x86 + x88 + x90 + x221 <= 1
 c7:   x27 + x51 + x73 + x92 + x94 + x96 + x98 + x100 + x102 + x104 + x106
       + x222 <= 1
 c8:   x5 + x29 + x53 + x75 + x91 + x108 + x110 + x112 + x114 + x116 + x118
       + x120 + x122 + x124 + x126 + x223 <= 1
 c9:   x7 + x31 + x55 + x77 + x107 + x128 + x130 + x132 + x134 + x136 + x138
       + x140 + x213 <= 1
 c10:  x9 + x33 + x79 + x93 + x109 + x127 + x142 + x144 + x146 + x148 + x150
       + x152 + x154 + x156 + x224 <= 1
 c11:  x11 + x35 + x57 + x95 + x111 + x129 + x141 + x158 + x160 + x162 + x164
       + x166 + x168 + x170 + x218 <= 1
 c12:  x13 + x37 + x59 + x81 + x97 + x113 + x131 + x143 + x157 + x172 + x174
       + x176 + x178 + x180 + x182 + x225 <= 1
 c13:  x15 + x39 + x61 + x83 + x99 + x115 + x133 + x145 + x159 + x171 + x184
       + x186 + x188 + x190 + x192 + x226 <= 1
 c14:  x17 + x41 + x63 + x85 + x117 + x147 + x161 + x173 + x183 + x194 + x196
       + x198 + x215 <= 1
 c15:  x19 + x43 + x65 + x101 + x119 + x135 + x149 + x163 + x175 + x185 + x193
       + x200 + x202 + x204 + x219 <= 1
 c16:  x21 + x45 + x67 + x87 + x121 + x151 + x165 + x177 + x187 + x199 + x206
       + x208 + x212 <= 1
 c17:  x69 + x103 + x123 + x137 + x153 + x167 + x179 + x189 + x195 + x201
       + x205 + x210 + x220 <= 1
 c18:  x23 + x47 + x71 + x89 + x105 + x125 + x139 + x155 + x169 + x181 + x191
       + x197 + x203 + x207 + x209 + x227 <= 1
 c19:  x1 + x2 <= 1
 c20:  x3 + x4 <= 1
 c21:  x5 + x6 <= 1
 c22:  x7 + x8 <= 1
 c23:  x9 + x10 <= 1
 c24:  x11 + x12 <= 1
 c25:  x13 + x14 <= 1
 c26:  x15 + x16 <= 1
 c27:  x17 + x18 <= 1
 c28:  x19 + x20 <= 1
 c29:  x21 + x22 <= 1
 c30:  x23 + x24 <= 1
 c31:  x25 + x26 <= 1
 c32:  x27 + x28 <= 1
 c33:  x29 + x30 <= 1
 c34:  x31 + x32 <= 1
 c35:  x33 + x34 <= 1
 c36:  x35 + x36 <= 1
 c37:  x37 + x38 <= 1
 c38:  x39 + x40 <= 1
 c39:  x41 + x42 <= 1
 c40:  x43 + x44 <= 1
 c41:  x45 + x46 <= 1
 c42:  x47 + x48 <= 1
 c43:  x49 + x50 <= 1
 c44:  x51 + x52 <= 1
 c45:  x53 + x54 <= 1
 c46:  x55 + x56 <= 1
 c47:  x57 + x58 <= 1
 c48:  x59 + x60 <= 1
 c49:  x61 + x62 <= 1
 c50:  x63 + x64 <= 1
 c51:  x65 + x66 <= 1
 c52:  x67 + x68 <= 1
 c53:  x69 + x70 <= 1
 c54:  x71 + x72 <= 1
 c55:  x73 + x74 <= 1
 c56:  x75 + x76 <= 1
 c57:  x77 + x78 <= 1
 c58:  x79 + x80 <= 1
 c59:  x81 + x82 <= 1
 c60:  x83 + x84 <= 1
 c61:  x85 + x86 <= 1
 c62:  x87 + x88 <= 1
 c63:  x89 + x90 <= 1
 c64:  x91 + x92 <= 1
 c65:  x93 + x94 <= 1
 c66:  x95 + x96 <= 1
 c67:  x97 + x98 <= 1
 c68:  x99 + x100 <= 1
 c69:  x101 + x102 <= 1
 c70:  x103 + x104 <= 1
 c71:  x105 + x106 <= 1
 c72:  x107 + x108 <= 1
 c73:  x109 + x110 <= 1
 c74:  x111 + x112 <= 1
 c75:  x113 + x114 <= 1
 c76:  x115 + x116 <= 1
 c77:  x117 + x118 <= 1
 c78:  x119 + x120 <= 1
 c79:  x121 + x122 <= 1
 c80:  x123 + x124 <= 1
 c81:  x125 + x126 <= 1
 c82:  x127 + x128 <= 1
 c83:  x129 + x130 <= 1
 c84:  x131 + x132 <= 1
 c85:  x133 + x134 <= 1
 c86:  x135 + x136 <= 1
 c87:  x137 + x138 <= 1
 c88:  x139 + x140 <= 1
 c89:  x141 + x142 <= 1
 c90:  x143 + x144 <= 1
 c91:  x145 + x146 <= 1
 c92:  x147 + x148 <= 1
 c93:  x149 + x150 <= 1
 c94:  x151 + x152 <= 1
 c95:  x153 + x154 <= 1
 c96:  x155 + x156 <= 1
 c97:  x157 + x158 <= 1
 c98:  x159 + x160 <= 1
 c99:  x161 + x162 <= 1
 c100: x163 + x164 <= 1
 c101: x165 + x166 <= 1
 c102: x167 + x168 <= 1
 c103: x169 + x170 <= 1
 c104: x171 + x172 <= 1
 c105: x173 + x174 <= 1
 c106: x175 + x176 <= 1
 c107: x177 + x178 <= 1
 c108: x179 + x180 <= 1
 c109: x181 + x182 <= 1
 c110: x183 + x184 <= 1
 c111: x185 + x186 <= 1
 c112: x187 + x188 <= 1
 c113: x189 + x190 <= 1
 c114: x191 + x192 <= 1
 c115: x193 + x194 <= 1
 c116: x195 + x196 <= 1
 c117: x197 + x198 <= 1
 c118: x199 + x200 <= 1
 c119: x201 + x202 <= 1
 c120: x203 + x204 <= 1
 c121: x205 + x206 <= 1
 c122: x207 + x208 <= 1
 c123: x209 + x210 <= 1
Bounds
      x1 = 0
      x2 = 0
      x3 = 0
      x4 = 0
      x5 = 0
      x6 = 0
      x7 = 0
      x8 = 0
 0 <= x9 <= 1
 0 <= x10 <= 1
      x11 = 0
      x12 = 0
      x13 = 0
      x14 = 0
      x15 = 0
      x16 = 0
 0 <= x17 <= 1
 0 <= x18 <= 1
      x19 = 0
      x20 = 0
      x21 = 0
      x22 = 0
      x23 = 0
      x24 = 0
      x25 = 0
      x26 = 0
      x27 = 0
      x28 = 0
      x29 = 0
      x30 = 0
      x31 = 0
      x32 = 0
      x33 = 0
      x34 = 0
      x35 = 0
      x36 = 0
      x37 = 0
      x38 = 0
      x39 = 0
      x40 = 0
      x41 = 0
      x42 = 0
      x43 = 0
      x44 = 0
      x45 = 0
      x46 = 0
      x47 = 0
      x48 = 0
      x49 = 0
      x50 = 0
      x51 = 0
      x52 = 0
      x53 = 0
      x54 = 0
      x55 = 0
      x56 = 0
      x57 = 0
      x58 = 0
      x59 = 0
      x60 = 0
      x61 = 0
      x62 = 0
      x63 = 0
      x64 = 0
      x65 = 0
      x66 = 0
      x67 = 0
      x68 = 0
      x69 = 0
      x70 = 0
      x71 = 0
      x72 = 0
 0 <= x73 <= 1
 0 <= x74 <= 1
      x75 = 0
      x76 = 0
      x77 = 0
      x78 = 0
 0 <= x79 <= 1
 0 <= x80 <= 1
      x81 = 0
      x82 = 0
      x83 = 0
      x84 = 0
 0 <= x85 <= 1
 0 <= x86 <= 1
      x87 = 0
      x88 = 0
      x89 = 0
      x90 = 0
      x91 = 0
      x92 = 0
 0 <= x93 <= 1
 0 <= x94 <= 1
      x95 = 0
      x96 = 0
      x97 = 0
      x98 = 0
      x99 = 0
      x100 = 0
      x101 = 0
      x102 = 0
 0 <= x103 <= 1
 0 <= x104 <= 1
      x105 = 0
      x106 = 0
      x107 = 0
      x108 = 0
      x109 = 0
      x110 = 0
      x111 = 0
      x112 = 0
      x113 = 0
      x114 = 0
      x115 = 0
      x116 = 0
      x117 = 0
      x118 = 0
      x119 = 0
      x120 = 0
      x121 = 0
      x122 = 0
      x123 = 0
      x124 = 0
      x125 = 0
      x126 = 0
      x127 = 0
      x128 = 0
      x129 = 0
      x130 = 0
      x131 = 0
      x132 = 0
      x133 = 0
      x134 = 0
      x135 = 0
      x136 = 0
      x137 = 0
      x138 = 0
      x139 = 0
      x140 = 0
      x141 = 0
      x142 = 0
      x143 = 0
      x144 = 0
      x145 = 0
      x146 = 0
 0 <= x147 <= 1
 0 <= x148 <= 1
      x149 = 0
      x150 = 0
      x151 = 0
      x152 = 0
 0 <= x153 <= 1
 0 <= x154 <= 1
      x155 = 0
      x156 = 0
      x157 = 0
      x158 = 0
      x159 = 0
      x160 = 0
      x161 = 0
      x162 = 0
      x163 = 0
      x164 = 0
      x165 = 0
      x166 = 0
      x167 = 0
      x168 = 0
      x169 = 0
      x170 = 0
      x171 = 0
      x172 = 0
      x173 = 0
      x174 = 0
      x175 = 0
      x176 = 0
      x177 = 0
      x178 = 0
      x179 = 0
      x180 = 0
      x181 = 0
      x182 = 0
      x183 = 0
      x184 = 0
      x185 = 0
      x186 = 0
      x187 = 0
      x188 = 0
      x189 = 0
      x190 = 0
      x191 = 0
      x192 = 0
      x193 = 0
      x194 = 0
 0 <= x195 <= 1
 0 <= x196 <= 1
      x197 = 0
      x198 = 0
      x199 = 0
      x200 = 0
      x201 = 0
      x202 = 0
      x203 = 0
      x204 = 0
      x205 = 0
      x206 = 0
      x207 = 0
      x208 = 0
      x209 = 0
      x210 = 0
      x211 = 1
      x212 = 1
      x213 = 1
 0 <= x214 <= 1
 0 <= x215 <= 1
      x216 = 1
 0 <= x217 <= 1
      x218 = 1
      x219 = 1
 0 <= x220 <= 1
 0 <= x221 <= 1
 0 <= x222 <= 1
      x223 = 1
 0 <= x224 <= 1
      x225 = 1
      x226 = 1
      x227 = 1
 0 <= x228 <= 1
Binaries
 x1  x2  x3  x4  x5  x6  x7  x8  x9  x10  x11  x12  x13  x14  x15  x16  x17 
 x18  x19  x20  x21  x22  x23  x24  x25  x26  x27  x28  x29  x30  x31  x32 
 x33  x34  x35  x36  x37  x38  x39  x40  x41  x42  x43  x44  x45  x46  x47 
 x48  x49  x50  x51  x52  x53  x54  x55  x56  x57  x58  x59  x60  x61  x62 
 x63  x64  x65  x66  x67  x68  x69  x70  x71  x72  x73  x74  x75  x76  x77 
 x78  x79  x80  x81  x82  x83  x84  x85  x86  x87  x88  x89  x90  x91  x92 
 x93  x94  x95  x96  x97  x98  x99  x100  x101  x102  x103  x104  x105  x106 
 x107  x108  x109  x110  x111  x112  x113  x114  x115  x116  x117  x118  x119 
 x120  x121  x122  x123  x124  x125  x126  x127  x128  x129  x130  x131  x132 
 x133  x134  x135  x136  x137  x138  x139  x140  x141  x142  x143  x144  x145 
 x146  x147  x148  x149  x150  x151  x152  x153  x154  x155  x156  x157  x158 
 x159  x160  x161  x162  x163  x164  x165  x166  x167  x168  x169  x170  x171 
 x172  x173  x174  x175  x176  x177  x178  x179  x180  x181  x182  x183  x184 
 x185  x186  x187  x188  x189  x190  x191  x192  x193  x194  x195  x196  x197 
 x198  x199  x200  x201  x202  x203  x204  x205  x206  x207  x208  x209  x210 
 x211  x212  x213  x214  x215  x216  x217  x218  x219  x220  x221  x222  x223 
 x224  x225  x226  x227  x228 
End
